465 387
240 288 112 156 147 236 119 216 152 259 140 155 122 256 289 265 275 297 168 235 236 171 222 265 234 285 144 186 133 253 215 190 212 145 108 151 215 263 208
227 191 177 235 141 181 226 243 132 132 231 228 111 115 222 231 215 205 100 199 111 230 172 209 236 86 79 227 112 163 243 225 183 204 147 96 145 156 153
366 168 328 458 334 696 613 576 435 601 499 557 682 656 292 442 633 152 626 405 547 551 250 169 505 749 191 497 687 236 203 321 519 309 291 155 171 317 180